# Solution for model GasLib-40
# Objective value = 3.8326160166884470e+01
loadshed[innode_1] 0
loadshed[innode_2] 0
loadshed[innode_3] 0
loadshed[innode_4] 0
loadshed[innode_5] 0
loadshed[innode_6] 0
loadshed[innode_7] 0
loadshed[innode_8] 0
loadshed[source_1] -1.3855435698141161e-01
loadshed[source_2] 2.4879149930564615e-02
loadshed[source_3] 3.5610732055976246e-01
loadshed[sink_1] 0
loadshed[sink_2] 0
loadshed[sink_3] 0
loadshed[sink_4] 0
loadshed[sink_5] 0
loadshed[sink_6] 0
loadshed[sink_7] 0
loadshed[sink_8] 0
loadshed[sink_9] 0
loadshed[sink_10] 0
loadshed[sink_11] 0
loadshed[sink_12] 1
loadshed[sink_13] 0
loadshed[sink_14] 0
loadshed[sink_15] 0
loadshed[sink_16] 0
loadshed[sink_17] 0
loadshed[sink_18] 0
loadshed[sink_19] 0
loadshed[sink_20] 0
loadshed[sink_21] 1
loadshed[sink_22] 0
loadshed[sink_23] 0
loadshed[sink_24] 3.4351043058656616e-01
loadshed[sink_25] 0
loadshed[sink_26] 0
loadshed[sink_27] 0
loadshed[sink_28] 0
loadshed[sink_29] 0
flow[source_1,sink_3] 1.7999437456029051e+02
flow[innode_1,sink_16] 1.6354166666666970e+01
flow[innode_6,sink_13] 1.2685994114881632e+01
flow[sink_13,sink_14] -3.6681725517850357e+00
flow[sink_14,sink_10] -2.0022339218452089e+01
flow[sink_25,sink_26] 1.3401416147584354e+02
flow[sink_26,sink_9] 3.2708333333334551e+01
flow[sink_9,sink_18] 1.6354166666667879e+01
flow[sink_26,sink_4] 8.4951661475842343e+01
flow[sink_4,sink_20] 0
flow[sink_18,sink_6] 0
flow[sink_25,innode_8] -1.4728604122695415e+02
flow[sink_6,sink_7] -4.9062500000000313e+01
flow[sink_6,sink_22] 3.2708333333333641e+01
flow[sink_7,sink_24] 1.0736339833115531e+01
flow[sink_22,sink_1] 1.6354166666666970e+01
flow[sink_24,sink_21] 0
flow[sink_21,sink_12] 0
flow[sink_7,sink_5] -76.1530064997825
flow[sink_5,sink_17] -9.2507173166449178e+01
flow[sink_17,sink_4] -6.8597494809175714e+01
flow[sink_17,sink_8] -4.0263845023940078e+01
flow[sink_3,sink_23] 16.3541666666697
flow[sink_8,sink_20] -5.6618011690606750e+01
flow[sink_25,sink_20] 7.2972178357273521e+01
flow[sink_25,sink_15] -8.8740459387711937e+01
flow[sink_15,sink_29] -5.9066852727948792e+01
flow[sink_29,sink_28] 1.6354166666667879e+01
flow[sink_29,sink_2] 6.2381939993096495e+01
flow[sink_2,sink_15] 4.6027773326429823e+01
flow[sink_29,innode_7] -1.5415712605437983e+02
flow[innode_4,sink_19] 38.7369692269779
flow[sink_19,innode_3] 6.9084839218452018e+01
flow[innode_4,innode_5] 6.3056203324806887e+01
flow[sink_27,innode_5] -6.3056203324806887e+01
flow[sink_27,sink_19] 4.6702036658140223e+01
flow[sink_10,sink_11] 3.2708333333333641e+01
flow[sink_10,innode_2] 0
flow[sink_10,innode_3] -6.9084839218452018e+01
flow[innode_6,sink_25] -1.2685994114881632e+01
flow[sink_11,innode_1] 1.6354166666666970e+01
flow[sink_19,innode_2] 0
flow[source_3,innode_4] 1.0179317255178478e+02
flow[source_2,innode_7] 1.5415712605437983e+02
flow[sink_3,innode_8] 1.4728604122695415e+02
pressure[innode_1] 75.4611535762073
pressure[innode_2] 7.9443916674254979e+01
pressure[innode_3] 7.9290936120815090e+01
pressure[innode_4] 81.01325
pressure[innode_5] 8.0969876618389293e+01
pressure[innode_6] 7.4729197611353726e+01
pressure[innode_7] 81.01325
pressure[innode_8] 8.0411597566188320e+01
pressure[source_1] 81.01325
pressure[source_2] 81.01325
pressure[source_3] 81.01325
pressure[sink_1] 1.0530970343845526e+01
pressure[sink_2] 75.3099458455783
pressure[sink_3] 8.0411597566188320e+01
pressure[sink_4] 5.4489684816008982e+01
pressure[sink_5] 44.9769990178021
pressure[sink_6] 1.2632047954232899e+01
pressure[sink_7] 1.3305559131933030e+01
pressure[sink_8] 5.3387374233299916e+01
pressure[sink_9] 6.3332980752878015e+01
pressure[sink_10] 7.5612854883810840e+01
pressure[sink_11] 75.4611535762073
pressure[sink_12] 1.01325
pressure[sink_13] 7.4659261845824943e+01
pressure[sink_14] 7.4665826353065569e+01
pressure[sink_15] 7.5159675310025349e+01
pressure[sink_16] 7.4439503741389615e+01
pressure[sink_17] 5.1868114757649479e+01
pressure[sink_18] 6.2741238259078315e+01
pressure[sink_19] 7.9443916674254979e+01
pressure[sink_20] 5.7332853413690962e+01
pressure[sink_21] 1.01325
pressure[sink_22] 1.1594739486200536e+01
pressure[sink_23] 8.0246879554528533e+01
pressure[sink_24] 1.01325
pressure[sink_25] 7.4729197611353726e+01
pressure[sink_26] 6.5290658920762624e+01
pressure[sink_27] 8.0446626646128948e+01
pressure[sink_28] 7.6594868514275646e+01
pressure[sink_29] 7.6890150787892821e+01
interdiction[source_1,sink_3] 0
interdiction[innode_1,sink_16] 0
interdiction[innode_6,sink_13] 0
interdiction[sink_13,sink_14] 0
interdiction[sink_14,sink_10] 0
interdiction[sink_25,sink_26] 0
interdiction[sink_26,sink_9] 0
interdiction[sink_9,sink_18] 0
interdiction[sink_26,sink_4] 0
interdiction[sink_4,sink_20] 1
interdiction[sink_18,sink_6] 1
interdiction[sink_25,innode_8] 0
interdiction[sink_6,sink_7] 0
interdiction[sink_6,sink_22] 0
interdiction[sink_7,sink_24] 0
interdiction[sink_22,sink_1] 0
interdiction[sink_24,sink_21] 0
interdiction[sink_21,sink_12] 0
interdiction[sink_7,sink_5] 0
interdiction[sink_5,sink_17] 0
interdiction[sink_17,sink_4] 0
interdiction[sink_17,sink_8] 0
interdiction[sink_3,sink_23] 0
interdiction[sink_8,sink_20] 0
interdiction[sink_25,sink_20] 0
interdiction[sink_25,sink_15] 0
interdiction[sink_15,sink_29] 0
interdiction[sink_29,sink_28] 0
interdiction[sink_29,sink_2] 0
interdiction[sink_2,sink_15] 0
interdiction[sink_29,innode_7] 0
interdiction[innode_4,sink_19] 0
interdiction[sink_19,innode_3] 0
interdiction[innode_4,innode_5] 0
interdiction[sink_27,innode_5] 0
interdiction[sink_27,sink_19] 0
interdiction[sink_10,sink_11] 0
interdiction[sink_10,innode_2] 1
interdiction[sink_10,innode_3] 0
interdiction[innode_6,sink_25] 0
interdiction[sink_11,innode_1] 0
interdiction[sink_19,innode_2] 0
interdiction[source_3,innode_4] 0
interdiction[source_2,innode_7] 0
interdiction[sink_3,innode_8] 0
WCcheckFlow[source_1,sink_3] 39
WCcheckFlow[innode_1,sink_16] 1
WCcheckFlow[innode_6,sink_13] 13
WCcheckFlow[sink_13,sink_14] 12
WCcheckFlow[sink_14,sink_10] 11
WCcheckFlow[sink_25,sink_26] 15
WCcheckFlow[sink_26,sink_9] 2
WCcheckFlow[sink_9,sink_18] 1
WCcheckFlow[sink_26,sink_4] 12
WCcheckFlow[sink_4,sink_20] 0
WCcheckFlow[sink_18,sink_6] 0
WCcheckFlow[sink_25,innode_8] -36
WCcheckFlow[sink_6,sink_7] -3
WCcheckFlow[sink_6,sink_22] 2
WCcheckFlow[sink_7,sink_24] 3
WCcheckFlow[sink_22,sink_1] 1
WCcheckFlow[sink_24,sink_21] 2
WCcheckFlow[sink_21,sink_12] 1
WCcheckFlow[sink_7,sink_5] -7
WCcheckFlow[sink_5,sink_17] -8
WCcheckFlow[sink_17,sink_4] -11
WCcheckFlow[sink_17,sink_8] 2
WCcheckFlow[sink_3,sink_23] 1
WCcheckFlow[sink_8,sink_20] 1
WCcheckFlow[sink_25,sink_20] 0
WCcheckFlow[sink_25,sink_15] 6
WCcheckFlow[sink_15,sink_29] 5
WCcheckFlow[sink_29,sink_28] 1
WCcheckFlow[sink_29,sink_2] 1
WCcheckFlow[sink_2,sink_15] 0
WCcheckFlow[sink_29,innode_7] 2
WCcheckFlow[innode_4,sink_19] -4
WCcheckFlow[sink_19,innode_3] -6
WCcheckFlow[innode_4,innode_5] 2
WCcheckFlow[sink_27,innode_5] -1
WCcheckFlow[sink_27,sink_19] 0
WCcheckFlow[sink_10,sink_11] 3
WCcheckFlow[sink_10,innode_2] 0
WCcheckFlow[sink_10,innode_3] 7
WCcheckFlow[innode_6,sink_25] -14
WCcheckFlow[sink_11,innode_1] 2
WCcheckFlow[sink_19,innode_2] 1
WCcheckFlow[source_3,innode_4] -1
WCcheckFlow[source_2,innode_7] -1
WCcheckFlow[sink_3,innode_8] 37
